(set-info :smt-lib-version 2.6)
(set-logic QF_SLIA)
(set-info :source |
Generated by: Denghang Hu,
Generated on: 20230329,
Application: Evaluate string solvers
Description: The instance consists of:
(1) a regular membership predicate from the real world
(2) a regular membership predicate to sanitize danger letters in javascript such as <,>,&,",'
(3) a lower bound for string length
Target solver: Ostrich, Z3str3, CVC5
|)
(set-info :license "https://creativecommons.org/licenses/by/4.0/")
(set-info :category "industrial")
(set-info :status unknown)
        ;test regex ^([A-Za-z-]+ [A-Z]{1,3}(?:, [A-Za-z-]+ [A-Z]{1,3})*(?:, et al\.)?):? (?:\((\d{4})\):? )?([A-Za-z\:\?\. ]+[A-Za-z\?])\.? ([A-Za-z]+)\.? (?:([0-9]+)[A-Za-z ]*; ?)?(\d+) ?(?:\(\d+\))?[\:,] ?([0-9-]+)
(declare-const X String)
(assert (str.in_re X (re.++ (str.to_re "") (re.++ (re.++ (re.+ (re.union (re.range "A" "Z") (re.union (re.range "a" "z") (str.to_re "-")))) (re.++ (str.to_re " ") (re.++ ((_ re.loop 1 3) (re.range "A" "Z")) (re.++ (re.* (re.++ (str.to_re ",") (re.++ (str.to_re " ") (re.++ (re.+ (re.union (re.range "A" "Z") (re.union (re.range "a" "z") (str.to_re "-")))) (re.++ (str.to_re " ") ((_ re.loop 1 3) (re.range "A" "Z"))))))) (re.opt (re.++ (str.to_re ",") (re.++ (str.to_re " ") (re.++ (str.to_re "e") (re.++ (str.to_re "t") (re.++ (str.to_re " ") (re.++ (str.to_re "a") (re.++ (str.to_re "l") (str.to_re "."))))))))))))) (re.++ (re.opt (str.to_re ":")) (re.++ (str.to_re " ") (re.++ (re.opt (re.++ (str.to_re "(") (re.++ ((_ re.loop 4 4) (re.range "0" "9")) (re.++ (str.to_re ")") (re.++ (re.opt (str.to_re ":")) (str.to_re " ")))))) (re.++ (re.++ (re.+ (re.union (re.range "A" "Z") (re.union (re.range "a" "z") (re.union (str.to_re ":") (re.union (str.to_re "?") (re.union (str.to_re ".") (str.to_re " "))))))) (re.union (re.range "A" "Z") (re.union (re.range "a" "z") (str.to_re "?")))) (re.++ (re.opt (str.to_re ".")) (re.++ (str.to_re " ") (re.++ (re.+ (re.union (re.range "A" "Z") (re.range "a" "z"))) (re.++ (re.opt (str.to_re ".")) (re.++ (str.to_re " ") (re.++ (re.opt (re.++ (re.+ (re.range "0" "9")) (re.++ (re.* (re.union (re.range "A" "Z") (re.union (re.range "a" "z") (str.to_re " ")))) (re.++ (str.to_re ";") (re.opt (str.to_re " ")))))) (re.++ (re.+ (re.range "0" "9")) (re.++ (re.opt (str.to_re " ")) (re.++ (re.opt (re.++ (str.to_re "(") (re.++ (re.+ (re.range "0" "9")) (str.to_re ")")))) (re.++ (re.union (str.to_re ":") (str.to_re ",")) (re.++ (re.opt (str.to_re " ")) (re.+ (re.union (re.range "0" "9") (str.to_re "-"))))))))))))))))))))))
; sanitize danger characters:  < > ' " &
(assert (not (str.in_re X (re.++ re.all (re.union (str.to_re "\u{3c}") (str.to_re "\u{3e}") (str.to_re "\u{27}") (str.to_re "\u{22}") (str.to_re "\u{26}")) re.all))))
(assert (< 20 (str.len X)))
(check-sat)
(exit)
